resources/blank_lines.lp
\ LP format example

Minimize
obj:  x + 10 y
Subject To
r01:  x + y  >= 1

Binaries
 x y z
End
