rust/resources/mps/blank_lines.mps
NAME        blank_lines
ROWS
 N  obj
 G  r01
COLUMNS
    MARK0000  'MARKER'                 'INTORG'
    x         obj       1
    x         r01       1
    y         obj       10
    y         r01       1
    z         obj       0
    MARK0001  'MARKER'                 'INTEND'
RHS
    RHS_V     r01       1
BOUNDS
 BV BOUND     x
 BV BOUND     y
 BV BOUND     z
ENDATA
